
Gurobi 9.5.0 (mac64[x86]) logging started Tue  2 Aug 11:31:03 2022

Set parameter LogFile to value "/Users/nikitabelyak/Dropbox (Aalto)/TSEP/Nordic_case_study/2022 data/optimisation_results/02_Aug_2022_11_31_03.log"
Set parameter Threads to value 6

Gurobi 9.5.0 (mac64[x86]) logging started Tue  2 Aug 11:31:03 2022

Set parameter LogFile to value "/Users/nikitabelyak/Dropbox (Aalto)/TSEP/Nordic_case_study/2022 data/optimisation_results/02_Aug_2022_11_31_03.log"

Gurobi 9.5.0 (mac64[x86]) logging started Tue  2 Aug 11:31:03 2022

Set parameter LogFile to value "/Users/nikitabelyak/Dropbox (Aalto)/TSEP/Nordic_case_study/2022 data/optimisation_results/02_Aug_2022_11_31_03.log"
Gurobi Optimizer version 9.5.0 build v9.5.0rc5 (mac64[x86])
Thread count: 6 physical cores, 12 logical processors, using up to 6 threads
Optimize a model with 28361 rows, 22055 columns and 83325 nonzeros
Model fingerprint: 0x21dc37f0
Model has 60 quadratic objective terms
Variable types: 12790 continuous, 9265 integer (9265 binary)
Coefficient statistics:
  Matrix range     [3e-04, 7e+10]
  Objective range  [7e+00, 8e+03]
  QObjective range [3e-04, 2e-01]
  Bounds range     [2e-314, 9e+03]
  RHS range        [1e-03, 1e+10]
Warning: Model contains large matrix coefficient range
Warning: Model contains large rhs
         Consider reformulating model or setting NumericFocus parameter
         to avoid numerical issues.

User MIP start did not produce a new incumbent solution
User MIP start violates constraint R4167 by 2773.500000000

Presolve removed 8544 rows and 6284 columns
Presolve time: 0.62s
Presolved: 19817 rows, 15771 columns, 63313 nonzeros
Presolved model has 60 quadratic objective terms
Variable types: 8844 continuous, 6927 integer (6927 binary)

Root relaxation: objective 6.139557e+08, 6913 iterations, 0.35 seconds (0.49 work units)
Another try with MIP start

    Nodes    |    Current Node    |     Objective Bounds      |     Work
 Expl Unexpl |  Obj  Depth IntInf | Incumbent    BestBd   Gap | It/Node Time

     0     0 6.1317e+08    0  673          - 6.1317e+08      -     -    1s
     0     0 6.1303e+08    0  504          - 6.1303e+08      -     -    5s
     0     0 6.1303e+08    0  504          - 6.1303e+08      -     -    5s
     0     0 6.1296e+08    0  465          - 6.1296e+08      -     -    6s
     0     0 6.1296e+08    0  475          - 6.1296e+08      -     -    6s
     0     0 6.1296e+08    0  462          - 6.1296e+08      -     -    7s
     0     0 6.1296e+08    0  464          - 6.1296e+08      -     -    7s
     0     0 6.1295e+08    0  446          - 6.1295e+08      -     -    8s
     0     0 6.1295e+08    0  451          - 6.1295e+08      -     -    8s
     0     0 6.1294e+08    0  467          - 6.1294e+08      -     -    8s
     0     0 6.1294e+08    0  459          - 6.1294e+08      -     -    9s
     0     0 6.1290e+08    0  452          - 6.1290e+08      -     -    9s
     0     0 6.1290e+08    0  468          - 6.1290e+08      -     -    9s
     0     0 6.1223e+08    0  449          - 6.1223e+08      -     -   10s
     0     0 6.1223e+08    0  458          - 6.1223e+08      -     -   10s
     0     0 6.1223e+08    0  464          - 6.1223e+08      -     -   10s
     0     0 6.1218e+08    0  427          - 6.1218e+08      -     -   11s
     0     0 6.0324e+08    0  443          - 6.0324e+08      -     -   11s
     0     0 6.0324e+08    0  450          - 6.0324e+08      -     -   11s
     0     0 5.9425e+08    0  452          - 5.9425e+08      -     -   11s
     0     0 5.9425e+08    0  452          - 5.9425e+08      -     -   12s
     0     2 5.9425e+08    0  452          - 5.9425e+08      -     -   24s
     1     4 5.9425e+08    1  549          - 5.9425e+08      -   661   25s
    13    20 5.9425e+08    4  512          - 5.9425e+08      -  1916   30s
    31    38 5.9425e+08    7  503          - 5.9425e+08      -  1430   36s
    41    47 -4.331e+10    9  351          - 5.9425e+08      -  1876   42s
    50    55 5.9425e+08    9  498          - 5.9425e+08      -  2804   50s
    58    64 5.9425e+08   11  418          - 5.9425e+08      -  3582   55s
    69    75 infeasible   11               - 5.9425e+08      -  3544   63s
    82    85 5.9370e+08   12  457          - 5.9425e+08      -  3530   66s
   100    89 4.3126e+08    5  442          - 4.3126e+08      -  3105   88s
   101    93 4.3126e+08   15  426          - 4.3126e+08      -  3164   92s
   107   101 3.1045e+08   17  423          - 4.3126e+08      -  2993   95s
   131   115 3.1045e+08   20  420          - 4.3126e+08      -  2475  101s
   254   192 3.1045e+08   31  409          - 4.3126e+08      -  1340  108s
   293   238 3.1045e+08   35  405          - 4.3126e+08      -  1277  111s
   386   281 3.0678e+08   41  449          - 4.3126e+08      -  1030  116s
   474   372 -6.223e+10   45  461          - 4.3126e+08      -   961  121s
   563   451 -6.220e+10   54  443          - 4.3126e+08      -   913  127s
   633   489 -6.220e+10   60  436          - 4.3126e+08      -   881  146s
   801   641 -6.221e+10   80  426          - 4.3126e+08      -   785  153s
   812   709 -6.221e+10   80  419          - 4.3126e+08      -   789  155s
   937   818 -6.241e+10   87  442          - 4.3126e+08      -   727  160s
  1212  1051 infeasible  108               - 4.3126e+08      -   652  166s
  1293  1127 -6.653e+10  114  445          - 4.3126e+08      -   653  171s
  1709  1466 infeasible  144               - 4.3126e+08      -   539  176s
  1848  1714 -1.201e+11  158  421          - 4.3126e+08      -   524  180s
  2176  1881 -1.203e+11  193  410          - 4.3126e+08      -   475  186s
  2320  2021 -3.935e+07   70  430          - 4.3126e+08      -   481  191s
  2524  2257 -4.354e+10   46  389          - 4.3126e+08      -   469  196s
  2664  2423 3.8302e+08   47  434          - 4.3126e+08      -   451  200s
  3005  2769 infeasible   57               - 4.3126e+08      -   426  207s
  3447  3061 -2.486e+09   66  611          - 4.3126e+08      -   401  260s
  3542  3165 -2.486e+09   67  589          - 4.3126e+08      -   415  282s
  3652  3312 -3.468e+09   76  613          - 4.3126e+08      -   417  343s
  3799  3430 -9.895e+09   88  355          - 4.3126e+08      -   425  346s
  3927  3606 -3.689e+09   93  512          - 4.3126e+08      -   419  350s
  4319  4196 -2.264e+11  102  406          - 4.3126e+08      -   405  358s
  4769  4327 infeasible  118               - 4.3126e+08      -   384  361s
  4936  4450 3.7539e+08   38  521          - 4.3126e+08      -   388  365s
  5075  4616 -2.488e+08   52  643          - 4.3126e+08      -   400  370s
  5257  4805 -8.975e+07   60  458          - 4.3126e+08      -   400  375s
  5458  4937 -2.831e+08   95  476          - 4.3126e+08      -   398  380s
  5606  5428 -9.828e+08   96  447          - 4.3126e+08      -   401  385s
  6267  5537 infeasible  192               - 4.3126e+08      -   396  397s
  6336  5571 2.1145e+08   46  438          - 4.3126e+08      -   401  403s
  6436  5585 -2.930e+11   54  249          - 4.3126e+08      -   421  417s
  6494  5830  postponed   53               - 4.3126e+08      -   422  447s
  6783  6029 -3.209e+11   98  500          - 4.3126e+08      -   425  455s
  7002  6261 -3.210e+11  113  485          - 4.3126e+08      -   422  462s
  7318  6418 -3.318e+11  150  512          - 4.3126e+08      -   423  470s
  7552  6625 -3.359e+11  159  565          - 4.3126e+08      -   428  477s
  7816  7111 -4.538e+09   60  494          - 4.3126e+08      -   430  485s
  8407  7326 infeasible  104               - 4.3126e+08      -   426  492s
  8662  7930 infeasible  104               - 4.3126e+08      -   428  502s
  9415  8220 infeasible  194               - 4.3126e+08      -   410  510s
  9795  8821 -3.541e+11   69  398          - 4.3126e+08      -   408  534s
 10599  9030 3.4152e+08   36  631          - 4.3126e+08      -   408  551s
 10850  9102 -3.886e+10   72  569          - 4.3126e+08      -   417  560s
 10986  9373 3.6562e+08   28  409          - 4.3126e+08      -   420  569s
 11314  9833 -1.318e+09   63  577          - 4.3126e+08      -   425  578s
 11877 10292 infeasible   65               - 4.3126e+08      -   423  601s
 12450 10508 -1.538e+09   59  431          - 4.3126e+08      -   421  611s
 12732 11179 -4.888e+09   88  497          - 4.3126e+08      -   422  625s
 13630 11464 -3.519e+09   74  470          - 4.3126e+08      -   418  634s
 14005 12324 infeasible  117               - 4.3126e+08      -   416  645s
 15154 12892 -7.984e+09  205  461          - 4.3126e+08      -   400  652s
 15922 12939 infeasible  247               - 4.3126e+08      -   395  674s
 16003 13197 infeasible  246               - 4.3126e+08      -   398  683s
 16376 13480  postponed   52               - 4.3126e+08      -   397  691s
 16732 14172 -7.047e+09   82  681          - 4.3126e+08      -   397  703s
 17632 15020 1.0613e+08   54  553          - 4.3126e+08      -   392  712s
 18732 15343 -2.088e+09   93  373          - 4.3126e+08      -   383  722s
 19168 16190 -3.567e+09  115  349          - 4.3126e+08      -   380  730s
 20321 16267 -1.218e+10  298  403          - 4.3126e+08      -   370  738s
 20412 16464 infeasible  335               - 4.3126e+08      -   370  758s
 20679 16865 3.4633e+08   45  424          - 4.3126e+08      -   374  766s
 21142 17584 -3.238e+09   63  456          - 4.3126e+08      -   372  776s
 22251 17809 -3.382e+10   36  469          - 4.3126e+08      -   365  784s
 22561 18014 -7.061e+10   56  495          - 4.3126e+08      -   366  792s
 22850 18204 -3.404e+10   63  393          - 4.3126e+08      -   369  800s
 23127 18489 -3.498e+10   94  337          - 4.3126e+08      -   372  809s
 23572 18909 -3.969e+10  112  377          - 4.3126e+08      -   373  860s
